S = 9;
start = [|0,0,1,66,0,0,7,0,0,0,0,0,0,0,0,0,0,0,35,0,39,0,0,0,0,0,2,0,21,0,0,0,72,0,0,0,0,4,0,59,0,0,0,75,0,0,49,27,0,61,0,0,0,0,0,0,0,0,0,0,0,0,0,0,65,0,0,8,0,0,17,9,13,0,28,0,0,32,10,11,0|
0,51,0,0,0,0,0,78,0,61,0,52,0,0,54,45,0,81,0,8,0,0,0,11,0,14,0,0,46,0,66,62,0,49,0,0,0,0,0,35,0,0,0,22,0,0,68,0,0,0,0,18,0,0,0,58,0,0,0,75,0,28,0,0,27,32,0,23,0,76,0,0,60,0,21,0,19,41,39,0,0|
0,0,68,0,73,30,52,0,49,0,0,38,0,0,0,0,0,0,0,0,0,0,0,0,0,0,0,0,0,51,0,0,0,0,0,18,0,0,0,0,56,0,0,0,0,4,0,0,0,15,0,36,0,40,0,0,0,0,0,42,0,0,0,0,0,0,0,16,0,0,0,12,31,0,0,48,0,0,0,78,0|
42,0,0,59,75,0,0,0,37,0,0,0,0,0,0,0,0,0,0,0,52,0,0,0,0,0,0,48,0,0,0,0,11,0,0,2,72,0,0,61,0,0,46,0,0,0,0,0,0,80,0,0,0,0,0,0,78,0,0,0,0,62,0,0,0,0,0,0,0,0,0,0,0,0,0,0,70,0,0,0,0|
80,0,0,0,0,0,0,0,16,0,63,57,0,0,0,58,0,8,79,76,0,0,0,0,0,0,0,0,77,0,0,0,0,0,4,0,0,52,0,0,0,0,0,0,39,0,0,0,0,0,0,0,0,31,14,0,0,0,0,0,0,34,36,10,0,24,0,6,11,43,0,64,0,81,0,0,0,0,0,65,7|
19,0,0,57,0,0,0,0,71,65,0,0,43,0,7,0,0,36,0,0,0,0,51,0,78,28,0,0,0,0,0,0,0,0,0,0,10,0,32,0,0,0,0,0,0,0,44,0,0,0,0,0,0,34,0,0,49,13,45,0,0,0,66,0,0,0,42,54,67,73,0,0,62,75,0,0,0,0,1,0,0|
0,0,0,35,61,0,79,0,0,0,0,0,0,0,0,0,0,0,0,0,0,0,0,0,0,0,0,0,0,0,12,0,0,0,0,0,0,0,0,0,0,17,0,0,0,0,0,19,78,0,57,0,0,0,0,0,0,0,0,48,0,0,0,0,0,0,0,66,39,0,25,0,0,0,38,0,22,0,0,0,0|
0,77,11,0,0,0,2,53,24,0,0,22,69,41,25,0,0,0,0,0,0,0,0,0,0,0,4,0,0,0,0,0,0,0,37,0,0,0,0,0,0,67,45,0,0,9,0,59,0,0,0,0,0,0,0,0,0,16,61,0,0,0,0,36,0,72,0,0,0,0,0,0,0,0,0,5,0,12,79,68,0|
0,0,0,0,0,0,26,0,50,0,0,0,0,0,0,0,0,4,0,0,0,0,12,48,0,0,0,0,0,44,73,0,10,0,30,0,0,29,0,0,0,6,78,34,0,0,0,69,0,11,0,65,0,0,0,0,0,0,0,17,0,0,68,0,61,0,0,0,0,3,81,0,74,0,0,0,42,0,0,0,0|
23,0,0,0,0,0,0,0,0,0,57,0,0,0,0,0,52,27,0,0,0,38,0,0,0,20,0,41,0,0,0,0,0,0,0,0,0,75,0,15,0,0,0,0,4,0,67,24,2,53,0,0,0,7,0,0,0,0,0,68,77,0,79,0,0,0,13,0,0,0,0,0,0,74,0,0,29,0,11,39,66|
0,0,0,0,0,13,76,26,0,0,0,30,0,0,0,60,25,17,0,0,0,0,0,0,0,0,56,0,0,74,0,81,0,0,0,0,0,64,63,0,0,0,0,39,53,79,0,0,0,0,0,58,36,0,19,0,0,14,0,52,0,0,0,0,0,37,0,67,0,0,0,62,70,0,20,0,0,0,0,0,0|
0,34,0,0,28,24,0,0,45,0,0,0,1,0,0,0,0,0,0,0,0,0,0,37,0,0,0,0,0,0,16,75,0,0,25,0,0,0,54,80,0,0,0,0,0,0,0,17,0,0,0,52,0,63,76,64,20,0,0,0,0,0,0,65,14,0,0,71,0,0,29,36,0,0,0,0,0,0,0,0,0|
0,0,0,75,0,0,65,0,74,0,71,0,0,8,0,0,0,54,53,0,40,0,0,3,61,63,0,0,0,31,22,0,0,0,0,0,0,0,0,0,0,0,0,73,0,0,0,0,0,0,0,0,19,0,0,0,0,46,81,38,33,0,0,48,2,76,0,0,0,0,0,80,24,36,0,37,0,0,0,0,0|
0,0,56,73,12,0,0,69,0,26,45,20,0,0,0,59,32,74,0,0,0,30,0,0,0,0,0,0,0,61,37,34,0,47,0,0,0,2,0,0,0,0,0,3,55,0,43,0,0,76,0,0,40,0,0,0,0,0,0,0,0,53,80,0,0,0,28,0,0,0,0,4,0,0,51,0,0,0,0,0,0|
0,0,0,0,0,2,0,68,0,0,29,0,0,0,76,77,0,47,0,0,0,0,0,22,46,0,0,0,0,72,0,0,35,0,0,0,0,0,0,0,0,0,0,0,0,0,0,25,0,0,0,62,0,3,0,0,0,0,31,55,24,26,0,42,0,18,0,0,0,0,0,0,14,0,0,0,80,0,0,0,0|
0,58,0,0,0,0,0,0,0,0,0,0,0,0,63,11,56,70,0,0,0,0,0,0,0,78,0,0,0,0,28,0,0,0,0,0,0,10,44,0,0,0,74,0,0,50,0,5,0,0,0,0,57,27,36,0,2,0,0,0,43,0,0,0,0,47,0,19,0,0,0,32,0,0,0,0,0,0,0,0,76|
10,0,27,22,57,61,0,0,0,0,13,12,0,0,0,80,0,0,0,47,0,0,0,5,0,0,0,59,0,0,32,0,0,33,0,0,60,0,0,0,0,0,0,0,0,0,0,0,15,0,0,0,70,0,72,0,0,0,0,0,0,0,0,0,0,0,0,38,0,0,51,63,50,0,0,0,0,69,6,0,0|
0,36,16,0,0,0,0,0,0,0,15,7,0,0,38,78,0,0,0,57,0,0,0,0,0,24,0,0,0,0,0,10,0,0,0,0,0,45,0,56,0,0,0,0,0,0,0,0,0,4,0,0,34,0,0,0,29,32,0,0,65,71,0,73,0,0,0,0,0,50,0,54,0,2,0,22,0,0,0,0,48|
0,0,70,0,0,0,0,0,75,0,0,72,0,0,0,0,0,0,46,0,5,0,47,71,0,0,0,0,0,80,0,0,52,0,0,0,0,0,0,0,0,0,0,0,0,0,0,0,0,0,0,0,0,0,0,78,0,0,0,0,0,0,37,0,0,0,0,0,0,0,0,0,27,0,11,0,38,0,0,0,0|
0,0,0,0,0,0,55,22,0,0,0,0,0,0,0,0,0,18,0,0,0,28,0,0,79,0,0,66,62,0,51,77,6,0,0,0,0,0,21,0,0,1,26,2,0,0,0,0,0,0,0,0,0,0,0,0,0,3,0,14,0,57,61,0,0,0,0,0,15,0,0,0,0,0,0,0,0,0,0,0,0|
0,0,0,0,0,0,0,0,0,0,6,0,0,0,0,26,21,0,17,0,0,0,0,0,0,0,0,0,0,0,0,0,0,0,0,0,29,33,0,0,0,0,0,30,0,71,58,0,5,0,0,0,0,0,0,0,0,0,0,0,0,0,0,0,22,0,0,0,0,12,0,16,0,20,0,32,77,0,0,0,0|
18,76,0,0,0,23,0,0,61,0,0,0,0,0,57,8,0,0,0,0,0,0,19,0,13,0,3,0,0,0,0,0,0,0,0,26,49,0,0,0,0,70,43,0,0,27,0,0,0,48,0,0,0,0,0,0,0,0,0,0,21,0,0,0,0,45,0,31,0,0,0,2,22,0,0,0,0,50,0,0,0|
0,0,0,0,0,0,19,48,0,0,69,0,0,0,0,0,0,0,61,0,0,0,0,0,0,0,26,0,0,0,0,79,0,0,0,70,0,0,36,0,39,0,0,0,35,0,72,0,0,0,0,13,0,0,0,0,0,0,0,0,0,0,0,0,0,44,0,0,0,8,0,0,0,0,0,0,66,0,0,0,0|
0,0,0,0,45,0,20,0,0,0,0,81,0,0,0,0,0,0,0,0,0,8,55,76,0,0,15,0,32,0,0,0,28,0,0,68,0,0,0,0,0,0,0,10,0,80,3,0,17,0,26,57,0,0,18,73,0,0,2,9,0,0,0,0,0,0,64,0,0,0,27,0,0,0,0,7,0,0,0,79,78|
0,30,0,0,0,0,0,0,11,0,0,0,0,0,0,0,0,0,23,0,0,0,0,34,0,0,50,27,78,29,0,0,7,63,0,0,0,0,73,5,51,0,77,0,62,0,0,0,0,0,22,0,0,59,24,0,0,44,0,49,38,12,0,0,47,0,0,13,0,0,32,0,0,0,0,0,2,0,0,0,0|
0,0,0,0,0,0,0,0,0,0,0,0,0,78,0,0,0,0,0,0,0,0,0,0,53,0,0,12,0,75,0,40,0,0,0,23,0,19,0,27,0,0,0,0,0,18,0,0,0,79,0,0,0,0,60,0,0,0,72,0,0,0,0,38,73,1,48,0,0,30,21,0,0,0,0,0,0,0,0,0,64|
47,0,0,0,0,0,57,0,79,0,23,0,0,0,0,0,0,0,0,0,0,0,0,0,20,33,0,37,0,0,0,0,0,0,0,59,54,0,0,0,0,0,0,0,0,0,0,0,0,0,0,0,0,0,0,0,48,0,0,0,0,39,0,61,0,78,0,0,0,65,0,0,69,0,0,0,0,80,0,51,0|
0,0,76,0,0,0,0,0,0,0,0,0,0,15,0,0,0,0,71,0,0,0,0,25,44,49,0,0,0,0,17,27,0,28,0,0,0,0,0,0,0,0,2,5,0,0,0,0,0,0,0,0,0,0,0,0,0,0,0,0,0,0,39,0,21,0,0,0,37,72,0,0,0,0,43,23,0,0,54,0,0|
0,0,7,0,0,0,0,0,0,0,0,0,0,0,0,46,0,0,0,5,0,0,0,21,0,42,0,33,6,0,0,0,57,55,0,0,0,0,0,0,58,0,67,0,70,0,0,35,16,74,17,0,0,25,64,0,14,0,20,0,0,61,30,0,50,0,81,0,0,0,0,0,0,0,0,0,0,18,0,0,0|
0,0,0,0,0,0,0,0,0,57,0,0,0,0,0,0,0,0,0,0,0,0,62,0,0,0,0,0,0,34,0,0,0,66,0,0,0,0,10,0,0,0,72,0,23,0,0,0,0,50,0,0,0,0,0,0,0,0,0,0,0,0,4,70,0,0,2,0,0,0,0,0,16,0,45,0,0,0,69,22,0|
0,0,0,0,68,47,0,0,0,0,0,34,0,0,0,0,0,60,0,30,0,61,0,0,28,0,46,0,0,41,0,0,0,0,78,0,0,0,81,0,22,0,0,0,0,0,0,0,0,12,0,0,0,0,0,0,45,40,42,80,0,0,0,0,0,0,0,0,32,0,0,48,0,24,0,11,0,35,0,0,0|
0,0,0,0,0,81,34,0,0,79,0,53,0,0,0,0,0,66,56,37,0,0,0,0,47,0,0,0,0,73,0,0,0,0,0,0,0,0,0,0,0,0,14,43,0,0,30,0,0,0,4,0,0,0,59,0,0,0,76,0,0,0,26,0,0,0,0,0,77,0,0,0,0,0,70,0,0,0,0,5,0|
0,0,0,0,0,29,33,0,53,0,0,0,0,0,74,16,73,58,19,32,0,26,0,0,10,38,9,0,0,20,13,43,0,0,0,0,0,0,55,0,64,0,0,0,50,0,0,0,0,0,0,0,0,0,0,17,77,0,0,0,0,0,0,14,0,0,0,0,0,0,0,0,0,49,0,0,0,31,0,0,34|
0,0,80,0,0,64,0,30,0,0,0,0,51,0,77,0,0,22,0,0,0,0,0,0,0,0,0,58,0,0,75,0,0,76,0,0,0,0,0,0,54,15,35,0,33,14,0,0,0,0,0,0,0,0,0,0,0,0,0,0,0,0,70,0,0,0,0,0,53,0,0,0,20,0,0,47,0,0,0,27,0|
0,10,0,19,0,0,4,63,13,0,0,70,0,0,0,0,0,0,50,0,0,0,0,0,33,0,0,0,0,0,0,47,0,0,0,0,0,0,0,36,0,0,12,0,0,45,0,0,0,0,0,0,81,72,0,0,67,0,27,0,0,0,0,51,0,79,0,52,0,0,60,0,0,0,53,0,0,0,0,0,56|
0,0,77,51,0,0,48,0,0,0,0,0,0,14,0,0,0,29,0,75,22,0,0,0,0,0,0,0,0,0,0,0,0,0,0,0,0,0,0,13,0,0,0,0,0,0,56,0,0,0,0,0,20,0,37,0,0,71,0,0,0,8,25,31,0,0,0,0,0,0,0,0,26,80,2,59,0,0,0,0,0|
0,0,0,0,0,71,0,58,0,0,0,0,0,0,0,0,30,0,0,0,57,0,0,13,0,0,0,18,0,0,0,0,0,0,0,0,0,32,0,0,0,2,0,63,0,73,0,0,0,1,0,0,0,0,0,0,0,0,0,29,0,0,0,0,0,0,39,0,66,0,0,0,0,0,0,0,0,47,14,42,0|
0,0,20,0,0,0,36,0,0,55,0,0,50,0,0,0,0,0,0,12,35,0,0,0,52,74,0,0,0,0,0,11,0,0,0,0,64,0,0,0,0,0,22,0,58,0,0,0,79,0,71,0,66,0,0,0,47,28,0,0,0,0,0,34,0,80,0,0,0,26,0,0,0,0,0,13,68,0,51,41,0|
39,0,17,62,0,0,13,0,25,0,0,0,0,0,80,15,0,0,18,78,0,0,0,7,0,61,63,0,73,0,0,12,0,0,0,0,66,0,35,76,0,0,0,0,0,0,55,0,0,2,65,0,0,44,0,23,54,0,0,72,0,0,0,0,0,0,59,0,0,0,43,0,0,0,27,0,0,0,0,0,0|
0,0,14,0,0,0,0,0,0,0,0,45,0,19,56,48,0,37,0,0,80,0,0,43,4,26,51,0,0,0,0,0,0,0,29,0,0,0,79,25,0,0,0,0,0,0,0,30,0,5,0,0,0,0,31,0,0,81,44,41,0,0,0,0,0,0,58,76,0,0,0,0,0,0,0,0,0,0,0,0,0|
0,59,0,61,0,65,0,0,0,0,0,0,0,17,0,0,26,0,0,0,3,0,0,16,0,0,0,19,0,0,0,0,25,0,0,0,11,0,0,0,0,0,0,0,0,0,8,0,0,21,0,0,0,0,0,0,0,0,0,0,0,0,60,0,0,73,0,0,0,0,0,0,0,0,0,58,0,0,0,0,28|
73,0,0,0,0,26,0,0,0,0,0,0,64,0,16,35,0,0,0,0,0,0,0,0,0,0,0,0,0,58,0,0,0,0,0,0,0,20,0,3,7,50,0,0,44,0,0,0,0,9,0,0,0,74,0,79,0,80,0,0,76,0,0,0,0,68,0,0,0,54,28,0,0,0,0,0,0,29,48,6,0|
0,29,0,0,0,0,0,0,0,0,0,0,10,0,0,32,0,0,0,56,0,53,0,0,0,0,0,0,20,13,5,0,55,45,26,0,68,0,0,0,36,0,0,0,6,0,0,0,0,70,80,0,35,0,0,0,0,66,0,0,0,18,34,0,0,0,19,0,0,0,0,46,0,0,0,0,57,0,0,25,62|
0,0,28,0,0,8,0,37,0,0,0,79,74,0,0,0,76,0,0,0,0,0,2,0,0,0,0,0,0,0,0,0,54,31,0,42,59,0,19,14,0,0,0,0,0,0,0,0,0,0,0,22,0,0,0,52,63,30,0,27,0,0,0,0,3,0,0,0,0,0,0,11,0,0,0,9,0,0,0,0,26|
0,0,0,0,0,0,0,0,0,0,0,0,66,36,0,0,0,0,0,0,0,0,0,29,0,0,0,0,0,0,68,0,0,0,59,0,0,0,0,0,4,0,0,26,80,0,25,0,0,0,0,16,0,0,0,2,0,0,64,40,13,5,0,0,0,0,0,32,0,7,0,0,52,0,0,35,79,20,12,54,0|
0,0,53,0,0,0,0,0,0,50,0,0,0,0,0,0,0,0,0,13,0,21,5,0,75,0,0,25,0,0,0,66,22,0,0,0,0,0,56,0,0,0,0,0,38,0,0,0,52,0,0,0,59,48,0,65,0,0,0,26,0,67,0,0,0,30,0,2,0,0,0,0,81,0,37,4,47,0,0,0,0|
0,0,0,0,0,0,0,0,0,0,42,0,0,0,0,81,17,0,41,0,0,0,0,0,0,0,6,0,0,0,0,0,13,0,0,0,0,0,0,0,0,0,0,0,49,0,0,53,19,0,0,0,5,36,0,0,0,0,0,0,0,0,0,4,33,0,77,0,23,0,0,0,0,0,48,64,0,0,70,0,0|
0,20,0,0,0,0,0,39,64,0,30,0,0,21,0,0,58,13,67,0,0,0,0,12,71,0,0,0,0,0,0,0,0,0,0,0,79,0,0,23,0,0,0,0,0,69,4,62,66,0,0,0,15,0,0,5,0,0,38,0,81,0,27,0,57,0,0,0,45,24,0,0,0,26,49,0,0,2,0,0,0|
0,0,0,44,4,0,1,0,31,0,0,0,0,0,69,14,0,0,51,0,0,0,0,81,0,0,0,28,0,36,0,37,0,0,0,0,65,0,2,0,50,0,0,0,17,0,0,47,0,25,0,0,0,0,0,0,56,48,0,0,23,0,0,0,0,22,6,0,0,27,0,0,0,0,0,0,41,34,0,0,74|
0,0,61,0,30,0,0,41,0,0,0,0,0,0,35,0,0,15,0,0,0,0,0,27,0,62,24,0,0,0,7,0,0,0,0,0,73,0,0,0,0,13,81,0,0,28,0,0,31,0,0,0,0,0,0,0,43,0,0,0,0,0,0,75,5,0,0,59,14,0,66,0,0,0,50,0,0,0,53,0,0|
0,0,0,0,0,0,0,0,0,0,0,0,22,0,0,0,0,48,0,0,0,69,0,0,11,0,29,0,0,0,0,0,63,62,0,12,0,0,0,0,0,0,0,4,0,0,0,10,0,0,0,0,0,0,0,0,66,0,0,77,55,0,0,0,20,0,0,0,0,0,0,0,0,0,0,0,0,0,44,0,0|
5,37,0,0,0,0,0,0,40,0,0,0,34,0,53,0,16,78,0,0,0,79,0,46,56,0,18,0,0,0,42,0,0,8,0,0,0,0,0,0,0,0,0,0,32,0,1,75,0,0,0,0,0,0,0,0,0,0,0,0,0,0,0,0,0,0,0,0,0,0,0,0,57,0,0,28,0,0,0,0,0|
74,71,0,0,0,0,0,0,0,46,0,1,0,0,23,0,0,0,0,50,68,0,0,0,0,0,0,0,0,0,27,0,0,0,0,0,0,0,59,0,37,0,0,0,0,11,0,0,0,41,18,0,17,0,0,0,0,0,0,0,62,0,0,56,0,0,0,49,44,0,0,0,0,0,0,0,0,0,0,0,22|
0,0,52,67,33,0,35,0,0,0,0,27,0,39,0,0,0,0,60,48,0,0,0,0,0,25,0,0,0,0,0,0,34,74,0,0,0,0,3,0,0,51,0,0,54,0,0,0,0,0,0,79,80,0,20,53,0,0,0,0,0,0,0,0,0,0,0,0,0,46,58,72,5,0,0,38,1,0,0,0,0|
0,0,0,0,0,0,0,0,0,0,0,0,0,0,0,0,0,46,0,0,0,33,0,67,0,4,0,0,34,0,25,0,0,0,0,0,0,30,0,0,0,0,51,0,0,0,73,0,0,0,21,0,0,0,0,0,36,0,53,12,0,0,0,49,0,0,0,0,0,70,0,0,0,0,0,0,0,0,0,0,0|
0,0,0,0,0,0,0,0,47,0,34,0,0,45,44,13,0,0,0,72,59,0,15,2,0,0,0,0,0,12,0,69,0,79,9,73,0,0,46,6,0,4,0,0,0,0,0,0,0,0,0,0,0,0,0,3,30,0,0,0,63,0,0,0,0,0,71,0,0,66,0,0,0,0,61,0,0,0,24,0,0|
0,69,0,0,0,0,0,0,0,0,0,0,0,0,0,23,0,0,0,0,0,0,0,0,0,0,13,5,0,0,0,0,0,32,0,47,2,25,0,0,66,0,0,0,0,0,0,0,0,0,0,0,0,0,0,80,0,0,0,74,75,0,0,0,0,0,37,36,0,0,0,0,0,0,1,73,0,0,0,70,6|
0,38,0,32,0,21,0,17,0,0,0,0,65,0,0,0,0,0,0,0,0,19,0,0,0,0,0,49,0,0,0,0,0,46,0,0,0,22,0,0,0,62,9,0,0,0,79,0,0,0,34,0,0,0,0,0,0,0,0,0,0,73,0,0,0,0,0,0,0,0,0,24,0,0,0,0,27,0,0,0,0|
0,0,0,25,0,0,0,0,0,0,0,73,0,0,0,38,0,56,0,0,0,0,0,0,0,0,0,0,0,0,0,0,0,0,77,0,0,0,0,0,0,64,0,27,20,15,80,0,0,0,0,53,0,66,0,0,0,0,0,33,0,0,57,0,0,43,0,0,0,0,0,0,0,0,0,39,0,0,60,0,0|
0,0,22,0,0,0,0,46,9,0,0,0,0,0,0,0,0,0,0,36,0,0,42,0,0,5,0,0,2,0,0,0,0,51,68,64,0,0,48,0,65,28,0,0,0,0,0,0,70,0,0,8,77,0,0,0,23,0,0,0,1,0,0,0,0,0,0,0,0,0,0,0,0,32,0,0,0,0,0,0,50|
16,0,73,70,0,0,0,0,0,0,18,0,0,0,60,0,0,7,0,0,0,25,0,0,0,0,0,0,41,39,0,0,0,0,0,0,0,0,0,0,0,0,11,0,0,0,36,0,0,0,0,67,0,51,0,0,0,0,28,0,0,21,0,0,0,0,0,0,0,0,79,0,54,0,0,69,0,0,0,14,31|
30,78,0,18,8,12,0,0,0,0,0,0,81,40,0,0,0,35,0,0,0,66,0,0,0,0,44,10,0,38,0,0,0,70,0,0,0,0,0,0,0,0,0,0,0,0,0,20,0,0,0,0,0,0,0,0,0,0,0,0,0,0,0,6,23,0,0,0,72,0,11,0,0,62,63,46,0,0,56,48,0|
0,0,0,80,0,54,0,24,0,39,70,0,12,0,0,0,0,0,0,52,0,56,0,0,0,0,60,63,43,81,0,72,59,48,7,0,35,0,0,0,0,0,0,0,74,0,0,0,0,78,41,0,0,11,0,0,51,25,0,64,37,15,8,77,0,0,0,0,28,0,0,5,19,0,0,21,0,0,66,3,0|
0,0,0,0,0,0,0,0,0,0,0,8,0,0,0,0,0,0,0,0,41,0,25,51,0,0,0,57,0,0,0,0,2,0,50,0,0,0,14,0,48,0,0,0,0,0,5,11,23,0,29,0,3,0,0,0,0,0,0,0,0,0,0,0,12,0,0,27,0,0,0,0,33,0,0,0,0,0,0,0,0|
28,0,0,0,76,0,77,0,0,58,0,0,0,7,0,0,0,0,42,0,0,0,0,0,1,0,0,0,0,0,47,0,0,0,24,51,0,60,0,0,8,23,0,78,0,0,0,0,67,0,79,0,0,17,0,0,0,0,0,44,0,0,0,0,0,16,0,0,0,0,0,0,0,0,0,18,35,21,0,37,0|
0,48,13,56,0,0,0,0,0,0,10,0,0,0,0,0,0,0,0,0,50,49,0,0,0,0,0,0,0,59,0,0,0,0,0,62,0,0,0,0,0,0,5,31,0,7,0,37,0,34,0,0,0,77,0,25,0,0,40,35,0,0,0,24,0,0,0,0,0,0,2,0,80,46,0,0,0,0,0,76,44|
1,49,0,0,0,0,70,0,0,31,0,0,0,0,79,0,0,0,0,0,0,0,0,0,0,0,21,29,0,0,0,0,0,0,14,0,0,50,0,0,0,0,0,55,67,0,0,28,0,60,0,30,45,0,23,0,0,12,0,0,0,0,0,22,0,0,0,0,65,0,0,0,0,0,0,2,0,0,0,0,0|
2,60,0,0,35,0,0,0,0,0,0,0,0,0,0,0,0,0,0,0,0,0,0,0,0,0,17,0,71,6,0,25,31,0,0,0,0,0,0,0,74,0,39,0,0,0,0,0,81,0,0,0,21,0,0,0,79,0,0,65,0,0,0,0,0,64,4,0,0,0,44,0,0,23,42,52,0,51,29,0,0|
0,0,0,33,0,0,10,44,0,0,0,0,0,0,0,0,0,0,0,79,56,0,0,78,57,0,0,0,0,0,0,0,0,0,0,67,0,51,0,0,0,0,0,11,76,6,0,0,53,0,0,50,13,0,0,0,0,0,0,0,7,0,62,0,29,23,17,46,18,0,80,0,39,0,0,0,0,0,72,0,0|
0,15,45,0,0,0,12,74,0,0,0,0,0,50,3,0,9,1,0,0,0,0,0,19,6,16,0,0,0,0,0,8,0,0,0,0,0,0,42,0,0,0,0,0,0,0,0,0,0,33,0,24,0,68,13,0,0,0,0,0,0,76,0,0,34,0,0,0,0,0,57,71,0,0,0,0,0,0,0,0,60|
0,0,0,0,0,0,0,0,30,0,0,0,0,0,0,0,34,0,76,0,11,46,0,45,0,0,0,0,0,0,0,23,0,0,21,74,12,0,0,52,0,53,0,44,0,0,0,0,0,0,0,70,0,0,55,0,0,0,0,78,0,37,0,0,0,0,50,0,0,0,0,0,4,0,0,0,0,66,0,73,0|
0,0,0,16,0,40,0,0,0,29,0,0,0,0,73,0,0,0,0,0,0,18,0,61,0,12,0,0,66,0,0,0,0,0,0,45,0,0,26,0,0,0,0,0,0,0,0,0,0,0,0,0,0,0,0,0,28,0,43,36,0,0,0,0,0,0,0,0,0,0,0,0,71,0,0,30,0,3,0,38,0|
0,0,0,0,0,0,0,0,28,0,0,0,21,3,81,1,0,0,0,0,0,0,0,36,0,0,0,35,0,0,0,0,0,78,0,53,0,0,0,0,0,0,0,0,0,0,0,0,0,0,0,0,0,0,40,0,39,0,0,0,0,0,0,29,0,50,0,0,64,18,0,0,0,0,0,0,0,0,0,0,0|
0,0,0,0,38,0,0,0,0,0,0,48,0,0,0,0,0,0,0,0,0,0,0,0,0,60,23,0,0,0,43,0,0,59,0,0,0,0,0,10,0,0,0,0,0,5,65,0,0,0,58,72,52,0,0,0,0,0,50,0,0,0,0,0,0,0,0,9,57,61,0,0,0,0,16,0,0,62,0,31,0|
0,0,0,0,0,0,0,0,0,0,54,0,0,0,0,0,0,0,0,7,20,0,0,0,0,0,0,0,0,0,0,38,50,0,0,52,71,0,0,0,0,0,0,77,0,0,0,0,0,0,0,0,48,24,0,0,0,6,0,0,0,78,0,0,0,40,0,0,42,0,0,0,0,0,10,0,0,0,22,0,0|
0,0,0,0,0,0,0,0,0,76,0,0,0,0,0,0,0,33,0,0,0,0,1,56,0,0,0,0,5,0,0,0,0,0,0,0,17,0,0,0,0,0,0,23,0,0,0,0,0,0,0,39,53,0,74,41,0,8,0,0,0,0,22,81,0,0,0,72,0,59,0,0,0,0,0,0,0,28,0,0,0|
0,0,0,0,0,0,0,0,0,0,52,69,0,59,43,63,0,45,28,0,0,0,0,0,0,0,0,30,0,0,0,80,0,0,0,0,0,0,0,0,0,0,0,0,0,0,0,0,0,0,31,1,64,0,48,72,53,61,32,0,0,0,0,15,0,65,0,0,0,16,49,0,0,0,0,71,3,0,0,0,58|
0,0,23,0,70,19,30,56,0,0,0,0,38,0,0,12,0,0,0,0,0,0,64,0,0,39,0,0,0,0,0,0,17,71,0,0,15,0,0,0,61,59,0,50,0,0,0,0,32,0,46,0,29,0,9,0,0,0,0,0,0,7,0,3,44,0,0,0,31,62,68,0,11,0,0,76,0,78,0,0,0|
0,0,0,50,0,52,0,54,0,0,74,0,0,25,0,0,0,16,72,0,29,0,0,14,48,0,0,0,0,33,2,0,0,0,0,76,0,0,0,0,0,0,0,21,0,0,20,0,0,13,75,40,0,0,80,0,0,0,17,0,59,0,0,0,63,0,0,0,0,0,45,0,0,38,0,0,0,0,0,0,0|
0,0,0,0,0,43,0,0,0,0,0,0,0,0,0,0,0,0,0,6,0,0,0,0,0,0,0,0,0,28,20,0,23,0,0,0,0,0,0,0,0,0,0,0,0,63,0,77,0,0,42,25,0,33,0,0,0,0,0,24,0,0,0,0,0,0,0,17,0,0,52,14,0,0,19,0,0,0,0,0,0|
34,0,0,0,0,0,0,0,0,71,0,0,0,0,40,0,22,0,33,0,0,68,0,0,0,0,25,67,0,0,0,0,0,1,19,49,81,72,80,0,29,0,0,0,0,0,78,0,12,27,0,0,0,0,38,0,44,0,0,0,0,0,0,0,0,0,0,0,0,0,0,74,0,79,0,0,0,0,0,17,0|];